30314
1 1 1 1 1 1 1 1 1 1 1 1 1 1 1 1 1 1 1 1 1 1 1 1 1 1 1 1 0 1
23 22 1 15 2 3 8 3 6 25 9 4 10 12 9 2 25 16 16 20 16 16 4 19 17 10 21 0 20 2 11 12 14 14 2 24 7 24 24 10 14 5 26 7 3 5 12 5 22 19 3 2 5 4 17 13 5 9 14 15 27 27 13 29 0 4 5 14 24 6 20 9 2 8 5 15 16 17 3 14 5 25 11 23 20 5 15 2 24 15 9 24 0 27 7 17 18 29 11 3 6 9 27 11 27 19 17 23 11 9 25 16 21 21 7 17 18 19 13 18 20 26 29 3 1 15 21 21 5 2 23 12 12 27 16 26 5 23 22 9 2 17 27 4 6 19 1 8 11 18 8 11 3 22 4 25 0 24 22 17 23 8 1 17 11 0 2 5 16 23 2 14 24 5 12 10 2 18 27 4 26 4 19 22 21 15 29 1 8 29 16 8 26 20 23 10 4 1 27 8